************************************************************************
file with basedata            : cr521_.bas
initial value random generator: 1369448598
************************************************************************
projects                      :  1
jobs (incl. supersource/sink ):  18
horizon                       :  122
RESOURCES
  - renewable                 :  5   R
  - nonrenewable              :  2   N
  - doubly constrained        :  0   D
************************************************************************
PROJECT INFORMATION:
pronr.  #jobs rel.date duedate tardcost  MPM-Time
    1     16      0       26        1       26
************************************************************************
PRECEDENCE RELATIONS:
jobnr.    #modes  #successors   successors
   1        1          3           2   3   4
   2        3          3           5   6   8
   3        3          3           7  11  16
   4        3          2           8   9
   5        3          3           7   9  16
   6        3          3           9  12  16
   7        3          3          12  13  15
   8        3          3          10  12  15
   9        3          2          10  15
  10        3          1          11
  11        3          1          13
  12        3          1          17
  13        3          1          14
  14        3          1          17
  15        3          1          18
  16        3          1          18
  17        3          1          18
  18        1          0        
************************************************************************
REQUESTS/DURATIONS:
jobnr. mode duration  R 1  R 2  R 3  R 4  R 5  N 1  N 2
------------------------------------------------------------------------
  1      1     0       0    0    0    0    0    0    0
  2      1     6       9    8    3    6    5    0    4
         2     8       8    5    3    5    5    5    0
         3    10       7    1    2    3    3    4    0
  3      1     3       8    7    9    7    1    0    9
         2     3       8    6    9    6    1    4    0
         3     6       6    3    2    5    1    0    9
  4      1     1       7    7    8    8    5    0    7
         2     2       3    7    4    6    5    0    7
         3     4       3    6    2    5    5    0    6
  5      1     1       6    7    6    6    1    3    0
         2     5       5    2    6    4    1    0    5
         3     5       4    2    4    4    1    3    0
  6      1     3       2    4    6    9    7   10    0
         2     8       2    4    6    9    7    6    0
         3     9       2    2    5    9    7    0    3
  7      1     1       5   10    9    7    4    1    0
         2     2       2    6    8    3    3    0    9
         3     5       1    6    6    3    3    0    9
  8      1     3       4    6   10    9   10    6    0
         2     8       3    5    6    6    5    0    5
         3     9       2    5    6    5    4    0    3
  9      1     5       4    7    6    4   10    2    0
         2     8       4    6    6    4    7    0    9
         3     9       4    5    3    3    4    0    4
 10      1     5       7    4    7    8    5    0    7
         2     6       5    4    4    6    5    5    0
         3    10       3    4    3    4    5    0    6
 11      1     1       4    6    8    6    6    4    0
         2     5       3    6    8    5    5    4    0
         3     8       1    1    7    5    5    0    9
 12      1     7       3    8    3    3    4    5    0
         2     7       3    7    4    3    4    5    0
         3     9       3    4    2    1    1    0    6
 13      1     1       3    7   10   10    7    0    7
         2     9       3    6    7    8    4    0    4
         3     9       2    7    6    8    3    0    6
 14      1     1       6    4    9    2    6    7    0
         2     2       2    3    4    2    6    0    5
         3     2       5    1    4    2    6    6    0
 15      1     5       7    6    5    7    8    0   10
         2     9       5    6    3    5    7    0    9
         3    10       5    5    2    4    1    0    9
 16      1     1       4    8   10    6    4    9    0
         2     7       3    7    9    6    3    4    0
         3    10       3    6    8    5    2    0    7
 17      1     4       3    5    4   10    9    5    0
         2     7       2    5    4    9    9    0    1
         3     7       1    2    4   10    8    0    1
 18      1     0       0    0    0    0    0    0    0
************************************************************************
RESOURCEAVAILABILITIES:
  R 1  R 2  R 3  R 4  R 5  N 1  N 2
   11   10   12   13   11   50   82
************************************************************************
